\ Model final
\ LP format - for model browsing. Use MPS format to capture full model detail.
\ Signature: 0x12cd8dd91b8c19d4
Minimize
  63 t_51_999 + 112.05 t_258_35 + 179 t_225_999 + 178 t_236_999
   + 225 t_370_999 + 83 t_119_999 + 109.2 t_197_6 + 124 t_264_999
   + 104.15 t_341_136 + 136 t_176_999 + 176 t_187_999 + 114 t_198_999
   + 230 t_321_999 + 133 t_332_999 + 56 t_81_999 + 132 t_255_999
   + 69 t_138_999 + 118 t_149_999 + 172 t_160_999 + 153 t_283_999
   + 231 t_294_999 + 78 t_32_999 + 67 t_43_999 + 187 t_217_999
   + 123 t_351_999 + 223 t_362_999 + 52 t_100_999 + 84 t_111_999
   + 159 t_245_999 + 171 t_256_999 + 40 t_5_999 + 147 t_179_999
   + 182 t_313_999 + 144 t_324_999 + 71 t_62_999 + 75 t_73_999
   + 102 t_207_999 + 96 t_218_999 + 90.52 t_183_224 + 86 t_130_999
   + 118.36 t_174_4 + 127 t_275_999 + 100 t_286_999 + 115.6 t_155_0
   + 49 t_13_999 + 71 t_24_999 + 65 t_35_999 + 101.11 t_257_38
   + 194 t_343_999 + 56 t_92_999 + 112 t_248_999 + 115 t_373_999
   + 49 t_122_999 + 158 t_305_999 + 52 t_54_999 + 153 t_190_999
   + 116 t_335_999 + 65 t_16_999 + 89.73 t_257_42 + 125 t_247_999
   + 100.8 t_197_9 + 175 t_141_999 + 129 t_152_999 + 36.42 t_10_21
   + 38.89 t_54_55 + 109 t_209_999 + 109 t_220_999 + 118 t_354_999
   + 195 t_365_999 + 45 t_103_999 + 39 t_114_999 + 170 t_171_999
   + 126 t_182_999 + 106.2 t_179_207 + 215 t_316_999 + 200 t_327_999
   + 59 t_65_999 + 71 t_76_999 + 25.84 t_21_26 + 116 t_250_999
   + 55 t_133_999 + 67 t_144_999 + 233 t_278_999 + 220 t_289_999
   + 77 t_27_999 + 50.77 t_148_224 + 120 t_201_999 + 135 t_346_999
   + 235 t_357_999 + 72 t_84_999 + 88 t_95_999 + 63 t_106_999
   + 127 t_240_999 + 109 t_163_999 + 164 t_297_999 + 136 t_308_999
   + 208 t_319_999 + 48 t_46_999 + 44 t_57_999 + 53 t_68_999
   + 130 t_202_999 + 49.16 t_61_57 + 116.88 t_190_189 + 126 t_376_999
   + 54 t_125_999 + 147 t_281_999 + 127 t_259_999 + 129 t_270_999
   + 58 t_8_999 + 41 t_19_999 + 62 t_30_999 + 120.2 t_181_5 + 157 t_338_999
   + 89 t_87_999 + 122 t_243_999 + 164 t_300_999 + 53 t_38_999
   + 56 t_49_999 + 136 t_174_999 + 212 t_185_999 + 104.89 t_240_41
   + 40 t_0_999 + 51 t_11_999 + 112 t_242_999 + 71 t_136_999
   + 118 t_147_999 + 41.56 t_17_14 + 99.8 t_146_6 + 169 t_204_999
   + 148 t_215_999 + 70.4 t_230_5 + 141 t_349_999 + 241 t_360_999
   + 65 t_98_999 + 113.8 t_190_206 + 111 t_272_999 + 90 t_222_9
   + 122 t_155_999 + 120 t_166_999 + 233 t_177_999 + 256 t_311_999
   + 71 t_60_999 + 119 t_234_999 + 299 t_368_999 + 161 t_379_999
   + 41.08 t_65_58 + 62 t_117_999 + 136 t_128_999 + 76 t_139_999
   + 101 t_273_999 + 66 t_22_999 + 61.8 t_130_133 + 69.06 t_241_238
   + 91 t_196_999 + 230 t_330_999 + 129 t_341_999 + 117 t_352_999
   + 43 t_79_999 + 82 t_90_999 + 65 t_101_999 + 129 t_235_999
   + 152.95 t_313_119 + 140 t_158_999 + 96.4 t_172_3 + 146 t_292_999
   + 191 t_303_999 + 176 t_314_999 + 67 t_41_999 + 62 t_52_999
   + 120 t_197_999 + 219 t_371_999 + 72 t_109_999 + 62 t_120_999
   + 139 t_254_999 + 108 t_265_999 + 40 t_3_999 + 56 t_14_999
   + 198 t_322_999 + 129 t_333_999 + 43 t_71_999 + 168 t_82_999
   + 147 t_227_999 + 95.04 t_181_205 + 120 t_284_999 + 236 t_295_999
   + 79 t_33_999 + 47 t_44_999 + 80.71 t_165_224 + 131 t_169_999
   + 27.14 t_19_26 + 104.9 t_259_35 + 89.39 t_239_38 + 101 t_226_999
   + 168 t_237_999 + 75 t_131_999 + 37.88 t_23_14 + 71 t_63_999
   + 73.6 t_205_9 + 134 t_188_999 + 119 t_199_999 + 138 t_210_999
   + 158 t_344_999 + 131 t_93_999 + 53 t_25_999 + 114 t_267_999
   + 119 t_150_999 + 139 t_161_999 + 104 t_172_999 + 190 t_306_999
   + 69 t_55_999 + 141 t_229_999 + 193 t_363_999 + 131 t_374_999
   + 88 t_112_999 + 63 t_123_999 + 108 t_257_999 + 123 t_268_999
   + 106.75 t_182_2 + 78.88 t_205_4 + 40 t_6_999 + 186 t_180_999
   + 115 t_191_999 + 198 t_325_999 + 138 t_336_999 + 122.24 t_229_208
   + 72 t_74_999 + 157 t_85_999 + 96 t_219_999 + 77.38 t_165_223
   + 131 t_142_999 + 178 t_153_999 + 120.77 t_238_42 + 113 t_276_999
   + 116 t_287_999 + 150 t_298_999 + 40 t_36_999 + 64 t_47_999
   + 123 t_355_999 + 51 t_104_999 + 63 t_115_999 + 134 t_238_999
   + 98 t_249_999 + 109 t_260_999 + 226 t_317_999 + 61 t_66_999
   + 114 t_222_999 + 77 t_134_999 + 222 t_279_999 + 55 t_17_999
   + 74 t_28_999 + 121 t_164_999 + 161 t_221_999 + 118 t_232_999
   + 190 t_366_999 + 115 t_377_999 + 68 t_126_999 + 91 t_179_206
   + 97.95 t_155_7 + 121 t_183_999 + 113 t_194_999 + 93.8 t_209_5
   + 184 t_328_999 + 139 t_339_999 + 66 t_77_999 + 60 t_9_999
   + 121 t_251_999 + 112 t_262_999 + 67 t_145_999 + 219 t_156_999
   + 209 t_290_999 + 69 t_39_999 + 174 t_213_999 + 127 t_224_999
   + 140 t_347_999 + 240 t_358_999 + 220 t_369_999 + 48 t_96_999
   + 74 t_107_999 + 81 t_118_999 + 218 t_252_999 + 66 t_1_999
   + 208 t_157_999 + 131 t_175_999 + 152 t_309_999 + 198 t_320_999
   + 224 t_331_999 + 56 t_58_999 + 66 t_69_999 + 71 t_80_999
   + 138 t_214_999 + 67.46 t_354_332 + 52 t_137_999 + 129 t_271_999
   + 186 t_282_999 + 140 t_293_999 + 48 t_20_999 + 75 t_31_999
   + 94 t_205_999 + 150 t_350_999 + 70 t_88_999 + 72 t_99_999
   + 155 t_233_999 + 135 t_244_999 + 98.25 t_257_35 + 103.5 t_197_2
   + 56.45 t_129_133 + 161 t_301_999 + 177 t_312_999 + 45 t_50_999
   + 65 t_61_999 + 137 t_186_999 + 164 t_263_999 + 166 t_274_999
   + 61 t_12_999 + 53 t_23_999 + 113 t_148_999 + 197 t_216_999
   + 250 t_361_999 + 102 t_110_999 + 63 t_42_999 + 157 t_167_999
   + 222 t_178_999 + 129 t_189_999 + 211 t_323_999 + 75 t_72_999
   + 63 t_4_999 + 121 t_246_999 + 123 t_380_999 + 68 t_129_999
   + 75 t_140_999 + 204 t_151_999 + 114 t_285_999 + 141.22 t_213_193
   + 134 t_208_999 + 142 t_342_999 + 122 t_353_999 + 179 t_364_999
   + 50 t_102_999 + 94 t_91_999 + 77.04 t_192_8 + 133 t_159_999
   + 180 t_170_999 + 94.6 t_226_6 + 196 t_304_999 + 207 t_315_999
   + 48 t_53_999 + 62 t_64_999 + 129 t_372_999 + 155 t_121_999
   + 57 t_132_999 + 113 t_266_999 + 136 t_277_999 + 46.54 t_61_63
   + 65 t_15_999 + 42 t_26_999 + 134 t_334_999 + 217 t_345_999
   + 108 t_83_999 + 121 t_94_999 + 36.29 t_13_19 + 109 t_228_999
   + 109 t_239_999 + 218 t_296_999 + 150 t_307_999 + 49 t_34_999
   + 65 t_45_999 + 60 t_56_999 + 127 t_181_999 + 55 t_113_999
   + 127 t_258_999 + 110 t_269_999 + 65 t_7_999 + 59 t_18_999
   + 67 t_143_999 + 184 t_326_999 + 48 t_75_999 + 156 t_200_999
   + 132 t_211_999 + 132 t_356_999 + 107.98 t_247_37 + 101.2 t_164_2
   + 100 t_288_999 + 46 t_37_999 + 51.55 t_90_89 + 127 t_162_999
   + 137 t_173_999 + 90 t_230_999 + 124 t_241_999 + 129 t_375_999
   + 53 t_124_999 + 55 t_135_999 + 93.8 t_226_0 + 84 t_192_999
   + 179 t_203_999 + 54.82 t_228_189 + 157 t_337_999 + 136 t_348_999
   + 102 t_86_999 + 58 t_97_999 + 113 t_231_999 + 96.06 t_166_223
   + 130.4 t_210_0 + 168 t_154_999 + 115 t_165_999 + 166 t_299_999
   + 136 t_310_999 + 50 t_48_999 + 40.58 t_23_21 + 149 t_193_999
   + 179 t_367_999 + 156 t_378_999 + 51.36 t_64_58 + 45 t_105_999
   + 62 t_116_999 + 96 t_127_999 + 99 t_261_999 + 47 t_10_999
   + 126 t_184_999 + 109.12 t_164_1 + 226 t_318_999 + 304 t_329_999
   + 129 t_340_999 + 47 t_67_999 + 57 t_78_999 + 87 t_89_999
   + 137 t_212_999 + 114 t_223_999 + 119 t_146_999 + 154 t_280_999
   + 141 t_291_999 + 65 t_29_999 + 68 t_40_999 + 164.02 t_313_120
   + 106.08 t_336_332 + 236 t_359_999 + 170 t_108_999 + 207 t_253_999
   + 55 t_2_999 + 64 t_59_999 + 48 t_70_999 + 99.9 t_239_35 + 172 t_195_999
   + 140 t_206_999 + 96.52 t_376_144 + 46 t_21_999 + 121 t_168_999
   + 150 t_302_999
Subject To
 cap_NA1013: - 0.16 t_155_0 + t_0_999 - 0.18 t_226_0 - 0.19 t_210_0
   >= -113
 cap_NA1041: t_1_999 - 0.18 t_164_1 >= -94
 cap_NA1070: - 0.35 t_182_2 - 0.3 t_197_2 - 0.36 t_164_2 + t_2_999 >= -120
 cap_NA1099: - 0.19 t_172_3 + t_3_999 >= -122
 cap_NA1140: - 0.28 t_174_4 - 0.24 t_205_4 + t_4_999 >= -89
 cap_NA1156: t_5_999 - 0.17 t_181_5 - 0.49 t_230_5 - 0.38 t_209_5 >= -116
 cap_NA1185: - 0.27 t_197_6 - 0.48 t_146_6 + t_6_999 - 0.16 t_226_6
   >= -100
 cap_NA1226: - 0.37 t_155_7 + t_7_999 >= -142
 cap_NA1257: t_8_999 - 0.12 t_192_8 >= -132
 cap_NA1277: - 0.32 t_197_9 - 0.4 t_222_9 - 0.34 t_205_9 + t_9_999 >= -147
 cap_NA1303: t_149_999 + t_152_999 + t_10_21 + t_148_224 + t_147_999
   + t_146_6 + t_150_999 + t_153_999 + t_148_999 + t_151_999 + t_154_999
   + t_10_999 + t_146_999 >= 219
 cap_NA1338: t_160_999 + t_155_0 + t_11_999 + t_155_999 + t_158_999
   + t_161_999 + t_155_7 + t_156_999 + t_157_999 + t_159_999 >= 523
 cap_NA1376: t_163_999 + t_12_999 + t_162_999 >= 24
 cap_NA1391: t_13_999 + t_171_999 + t_166_999 + t_165_224 + t_169_999
   + t_165_223 + t_164_999 + t_167_999 + t_170_999 + t_13_19 + t_164_2
   + t_166_223 + t_165_999 + t_164_1 + t_168_999 >= 168
 cap_NA1423: - 0.24 t_17_14 + t_172_3 + t_14_999 - 0.27 t_23_14 + t_172_999
   >= 17
 cap_NA1470: t_176_999 + t_179_999 + t_174_4 + t_179_207 + t_174_999
   + t_177_999 + t_180_999 + t_179_206 + t_175_999 + t_178_999 + t_15_999
   + t_173_999 >= 283
 cap_NA1490: t_16_999 >= 28
 cap_NA1520: t_187_999 + t_183_224 + t_182_999 + t_181_5 + t_185_999
   + t_17_14 + t_181_205 + t_182_2 + t_17_999 + t_183_999 + t_186_999
   + t_181_999 + t_184_999 >= 222
 cap_NA1556: t_190_999 + 0.72 t_190_189 + t_190_206 + t_188_999 + t_191_999
   + t_189_999 + t_18_999 - 0.42 t_228_189 >= 82
 cap_NA1574: t_19_999 + t_19_26 + t_194_999 - 0.22 t_213_193 + t_192_8
   - 0.31 t_13_19 + t_192_999 + t_193_999 + t_195_999 >= 16
 cap_NA1609: t_197_6 + t_198_999 + t_197_9 + t_201_999 + t_202_999
   + t_204_999 + t_196_999 + t_197_999 + t_199_999 + t_20_999 + t_197_2
   + t_200_999 + t_203_999 >= 217
 cap_NA1634: t_207_999 - 0.23 t_10_21 - 0.4 t_179_207 + t_21_26
   - 0.28 t_190_206 - 0.34 t_181_205 + t_205_9 + t_205_4 - 0.14 t_229_208
   - 0.4 t_179_206 + t_205_999 + t_208_999 - 0.27 t_23_21 + t_206_999
   + t_21_999 >= 21
 cap_NA1670: t_217_999 + t_209_999 + t_215_999 + t_22_999 + t_210_999
   + t_209_5 + t_213_999 + t_214_999 + t_216_999 + t_213_193 + t_211_999
   + t_210_0 + t_212_999 >= 166
 cap_NA1703: t_218_999 + t_220_999 + t_23_14 + t_219_999 + t_221_999
   + t_23_999 + t_23_21 >= 116
 cap_NA1721: t_225_999 - 0.24 t_183_224 + t_24_999 - 0.49 t_148_224
   + t_222_9 - 0.27 t_165_224 - 0.33 t_165_223 + t_222_999 + t_224_999
   - 0.21 t_166_223 + t_223_999 >= 55
 cap_NA1767: t_227_999 + t_226_999 + t_25_999 + t_229_999 + t_229_208
   + t_226_6 + t_228_999 + t_226_0 + t_228_189 >= 197
 cap_NA1790: - 0.48 t_21_26 + t_230_5 - 0.33 t_19_26 + t_26_999 + t_230_999
   >= -24
 cap_NA1815: t_27_999 >= -58
 cap_NA1843: t_28_999 >= 49
 cap_NA1876: t_29_999 >= -113
 cap_NA1909: t_30_999 >= -3
 cap_NA1930: t_31_999 >= -121
 cap_NA1970: t_32_999 >= -53
 cap_NA2009: t_33_999 >= -145
 cap_NA2030: t_34_999 >= -109
 cap_NA2059: - 0.23 t_258_35 + t_35_999 - 0.34 t_259_35 - 0.15 t_257_35
   - 0.14 t_239_35 >= -76
 cap_NA2097: t_36_999 >= -140
 cap_NA2124: - 0.37 t_247_37 + t_37_999 >= -85
 cap_NA2143: - 0.13 t_257_38 + t_38_999 - 0.37 t_239_38 >= -143
 cap_NA2186: t_39_999 >= -96
 cap_NA2201: t_40_999 >= -143
 cap_NA2236: - 0.33 t_240_41 + t_41_999 >= -80
 cap_NA2277: - 0.29 t_257_42 - 0.21 t_238_42 + t_42_999 >= -93
 cap_NA2294: t_43_999 >= -149
 cap_NA2329: t_236_999 + t_234_999 + t_235_999 + t_44_999 + t_237_999
   + t_232_999 + t_233_999 + t_231_999 >= 443
 cap_NA2364: t_245_999 + t_240_999 + t_243_999 + t_240_41 + t_242_999
   + 0.59 t_241_238 + t_239_38 + t_238_42 + t_238_999 + t_244_999
   + t_246_999 + t_239_999 + t_45_999 + t_241_999 + t_239_35 >= 285
 cap_NA2395: t_46_999 >= -26
 cap_NA2428: t_247_999 + t_47_999 + t_247_37 >= 96
 cap_NA2445: t_255_999 + t_256_999 + t_248_999 + t_250_999 + t_254_999
   + t_249_999 + t_251_999 + t_252_999 + t_48_999 + t_253_999 >= 661
 cap_NA2486: t_258_35 + t_257_38 + t_257_42 + t_259_999 + t_49_999
   + t_259_35 + t_257_999 + t_260_999 + t_262_999 + t_257_35 + t_263_999
   + t_258_999 + t_261_999 >= 181
 cap_NA2515: t_50_999 >= -38
 cap_NA2543: t_51_999 + t_264_999 >= 44
 cap_NA2579: t_275_999 + t_248_999 + t_297_999 + t_52_999 + t_363_999
   + t_325_999 + t_285_999 + t_372_999 + t_307_999 >= 339
 cap_NA2592: t_286_999 + t_373_999 + t_308_999 + t_276_999 + t_298_999
   + t_249_999 + t_364_999 + t_53_999 + t_326_999 >= 372
 cap_NA2629: t_257_38 + t_54_999 + t_257_42 + t_54_55 + t_257_999
   + t_336_999 + t_257_35 + t_315_999 + t_269_999 + t_336_332 >= 137
 cap_NA2661: - 0.19 t_54_55 - 0.41 t_241_238 + t_55_999 + t_238_42
   + t_238_999 >= 22
 cap_NA2698: t_316_999 + t_346_999 + t_357_999 + t_352_999 + t_265_999
   + t_56_999 >= 93
 cap_NA2724: t_57_999 - 0.36 t_61_57 + t_239_38 + t_239_999 + t_239_35
   >= 32
 cap_NA2750: - 0.32 t_65_58 + t_58_999 - 0.19 t_64_58 >= -10
 cap_NA2780: t_365_999 + t_327_999 + t_374_999 + t_287_999 + t_309_999
   + t_299_999 + t_59_999 >= 257
 cap_NA2803: t_258_35 + t_270_999 + t_60_999 + t_317_999 + t_258_999
   + t_337_999 >= 104
 cap_NA2843: t_332_999 + t_61_57 + t_347_999 + t_358_999 - 0.38 t_354_332
   + t_61_999 + t_353_999 + t_266_999 + t_61_63 - 0.24 t_336_332 >= 135
 cap_NA2876: t_62_999 + t_259_999 + t_338_999 + t_259_35 + t_271_999
   + t_318_999 >= 138
 cap_NA2908: t_63_999 - 0.26 t_61_63 >= -4
 cap_NA2937: t_240_999 + t_300_999 + t_240_41 + t_64_999 + t_375_999
   + t_64_58 >= 72
 cap_NA2952: t_65_999 + t_376_999 + t_65_58 + t_241_238 + t_366_999
   + t_301_999 + t_241_999 + t_376_144 >= 43
 cap_NA2996: t_264_999 + t_294_999 + t_247_999 + t_354_999 + t_333_999
   + t_66_999 + t_354_332 + t_247_37 + t_348_999 + t_359_999 >= 431
 cap_NA3018: t_242_999 + t_67_999 >= 11
 cap_NA3058: t_319_999 + t_68_999 + t_272_999 + t_260_999 + t_339_999
   >= 120
 cap_NA3087: t_349_999 + t_360_999 + t_295_999 + t_267_999 + t_355_999
   + t_69_999 + t_334_999 + t_162_999 >= 246
 cap_NA3119: - 0.34 t_181_205 + t_226_999 + t_205_9 + t_205_4 + t_377_999
   + t_328_999 + t_205_999 + t_226_6 + t_288_999 + t_226_0 + t_310_999
   + t_367_999 + t_70_999 + t_302_999 >= 567
 cap_NA3145: t_218_999 + t_209_999 + t_222_9 + t_273_999 + t_196_999
   + t_71_999 + t_222_999 + t_209_5 + t_320_999 + t_192_8 + t_192_999
   + t_340_999 >= 324
 cap_NA3175: t_188_999 + t_72_999 >= 61
 cap_NA3190: t_321_999 + t_73_999 + t_268_999 + t_350_999 + t_361_999
   + t_356_999 >= 49
 cap_NA3221: t_197_6 + t_197_9 + t_181_5 + t_146_6 + t_197_999 + t_181_205
   + t_210_999 + t_74_999 + t_164_999 + t_197_2 + t_181_999 + t_164_2
   + t_173_999 + t_210_0 + t_164_1 + t_146_999 >= 169
 cap_NA3268: t_351_999 + t_362_999 + t_324_999 + t_335_999 + t_163_999
   + t_230_5 + t_172_3 + t_284_999 + t_172_999 + t_296_999 + t_75_999
   + t_230_999 >= 354
 cap_NA3289: t_174_4 + t_155_0 + t_182_999 + t_76_999 + t_174_999
   + t_147_999 + t_155_999 + t_182_2 + t_155_7 + t_277_999 >= 153
 cap_NA3316: t_198_999 + t_183_224 + t_250_999 + t_148_224 + t_165_224
   + t_165_223 + t_183_999 + t_77_999 + t_175_999 + t_148_999 + t_211_999
   + t_231_999 + t_165_999 >= 100
 cap_NA3346: t_243_999 + t_78_999 >= 33
 cap_NA3375: t_341_136 + t_341_999 + t_79_999 + t_322_999 + t_219_999
   - 0.33 t_165_223 - 0.21 t_166_223 + t_261_999 + t_223_999 >= 82
 cap_NA3401: t_176_999 + t_149_999 + t_166_999 + t_199_999 + t_232_999
   + t_251_999 + t_80_999 + t_166_223 + t_184_999 + t_212_999 >= 219
 cap_NA3432: t_81_999 - 0.24 t_183_224 + t_220_999 - 0.49 t_148_224
   - 0.27 t_165_224 + t_262_999 + t_224_999 + t_323_999 + t_342_999 >= 171
 cap_NA3475: t_278_999 + t_289_999 + t_177_999 + t_311_999 + t_368_999
   + t_82_999 + t_156_999 + t_252_999 + t_329_999 >= 567
 cap_NA3508: t_225_999 + t_343_999 + t_221_999 + t_213_999 + t_233_999
   + t_263_999 + t_274_999 + t_167_999 + 0.78 t_213_193 + t_83_999
   + t_200_999 + t_193_999 >= 434
 cap_NA3527: t_201_999 + t_84_999 + t_234_999 + t_344_999 + t_150_999
   + t_194_999 + t_214_999 + t_168_999 >= 559
 cap_NA3557: t_185_999 + t_85_999 + t_279_999 + t_290_999 + t_157_999
   + t_178_999 + t_151_999 + t_253_999 >= 395
 cap_NA3590: t_86_999 >= -48
 cap_NA3613: t_87_999 + t_158_999 + t_303_999 + t_254_999 + t_369_999
   + t_312_999 + t_378_999 + t_280_999 + t_291_999 >= 497
 cap_NA3645: - 0.28 t_190_189 + t_88_999 + t_244_999 + t_189_999
   - 0.42 t_228_189 >= 6
 cap_NA3679: - 0.35 t_90_89 + t_89_999 >= -4
 cap_NA3715: t_255_999 + t_179_999 + t_152_999 + t_179_207 + t_202_999
   + t_281_999 + t_215_999 + t_90_999 + t_235_999 + t_169_999 + t_179_206
   + t_186_999 + t_159_999 + t_90_89 >= 284
 cap_NA3745: t_370_999 + t_245_999 + t_313_999 + t_190_999 + t_190_189
   + 0.72 t_190_206 + t_379_999 + t_330_999 + t_313_119 + t_292_999
   + t_227_999 - 0.4 t_179_206 + t_91_999 + t_304_999 + t_313_120
   + t_206_999 >= 666
 cap_NA3762: t_207_999 + t_92_999 + t_305_999 - 0.4 t_179_207 + t_191_999
   + t_246_999 + t_380_999 + t_228_999 + t_228_189 >= 287
 cap_NA3794: t_236_999 + t_93_999 + t_153_999 + t_216_999 + t_170_999
   + t_345_999 + t_203_999 + t_195_999 >= 201
 cap_NA3821: t_187_999 + t_160_999 + t_217_999 + t_256_999 + t_171_999
   + t_204_999 + t_237_999 + t_180_999 + t_282_999 + t_94_999 + t_154_999
   >= 190
 cap_NA3867: t_283_999 + t_95_999 + t_314_999 + t_371_999 + t_161_999
   + t_306_999 + t_229_999 + 0.86 t_229_208 + t_331_999 + t_293_999
   + t_208_999 >= 299
 cap_NA3883: t_265_999 + t_267_999 + t_268_999 + t_96_999 + t_266_999
   >= 155
 cap_NA3923: t_270_999 + t_272_999 + t_273_999 + t_271_999 + t_274_999
   + t_269_999 + t_97_999 >= 181
 cap_NA3942: t_283_999 + t_275_999 + t_278_999 + t_281_999 + t_98_999
   + t_276_999 + t_279_999 + t_282_999 + t_277_999 + t_280_999 >= 202
 cap_NA3985: t_284_999 + t_99_999 >= 75
 cap_NA4005: t_100_999 + t_286_999 + t_289_999 + t_292_999 + t_287_999
   + t_290_999 + t_293_999 + t_285_999 + t_288_999 + t_291_999 >= 272
 cap_NA4043: t_101_999 >= 46
 cap_NA4077: t_102_999 >= 14
 cap_NA4095: t_103_999 >= 3
 cap_NA4121: t_104_999 >= 72
 cap_NA4161: t_105_999 >= -103
 cap_NA4186: t_106_999 >= -35
 cap_NA4225: t_107_999 >= -44
 cap_NA4247: t_294_999 + t_295_999 + t_296_999 + t_108_999 >= 352
 cap_NA4270: t_109_999 >= 75
 cap_NA4314: t_305_999 + t_297_999 + t_300_999 + t_303_999 + t_306_999
   + t_298_999 + t_301_999 + t_110_999 + t_304_999 + t_299_999 + t_302_999
   >= 426
 cap_NA4347: t_111_999 >= 75
 cap_NA4380: t_313_999 + t_308_999 + t_311_999 + t_313_119 + t_314_999
   + t_112_999 + t_309_999 + t_312_999 + t_307_999 + t_310_999 + t_313_120
   >= 763
 cap_NA4405: t_113_999 >= 1
 cap_NA4432: t_114_999 >= 42
 cap_NA4453: t_115_999 >= 49
 cap_NA4480: t_116_999 >= 42
 cap_NA4519: t_117_999 >= -110
 cap_NA4549: t_118_999 >= -74
 cap_NA4577: t_119_999 - 0.35 t_313_119 >= -50
 cap_NA4603: t_120_999 - 0.29 t_313_120 >= -58
 cap_NA4644: t_321_999 + t_316_999 + t_319_999 + t_322_999 + t_317_999
   + t_320_999 + t_323_999 + t_315_999 + t_121_999 + t_318_999 >= 395
 cap_NA4677: t_122_999 >= -116
 cap_NA4692: t_123_999 >= -1
 cap_NA4737: t_124_999 >= -96
 cap_NA4753: t_125_999 >= -25
 cap_NA4788: t_126_999 >= -9
 cap_NA4823: t_324_999 + t_127_999 >= 82
 cap_NA4853: t_327_999 + t_128_999 + t_330_999 + t_325_999 + t_328_999
   + t_331_999 + t_326_999 + t_329_999 >= 496
 cap_NA4885: t_332_999 + t_335_999 + t_333_999 - 0.38 t_354_332 + t_129_133
   + t_129_999 + t_334_999 - 0.24 t_336_332 >= 106
 cap_NA4904: t_341_136 + t_130_999 + t_343_999 + t_338_999 + t_130_133
   + t_341_999 + t_344_999 + t_336_999 + t_339_999 + t_342_999 + t_345_999
   + t_337_999 + t_340_999 + t_336_332 >= 576
 cap_NA4937: t_351_999 + t_346_999 + t_349_999 + t_131_999 + t_347_999
   + t_350_999 + t_348_999 >= 118
 cap_NA4974: t_354_999 + t_352_999 + t_355_999 + t_354_332 + t_353_999
   + t_132_999 + t_356_999 >= 137
 cap_NA5002: t_133_999 - 0.44 t_130_133 - 0.21 t_129_133 >= -44
 cap_NA5030: t_134_999 >= -42
 cap_NA5069: t_135_999 >= -128
 cap_NA5084: - 0.35 t_341_136 + t_136_999 >= 0
 cap_NA5126: t_137_999 >= -123
 cap_NA5159: t_138_999 >= -23
 cap_NA5170: t_139_999 >= -29
 cap_NA5217: t_140_999 >= -128
 cap_NA5246: t_362_999 + t_141_999 + t_357_999 + t_360_999 + t_358_999
   + t_361_999 + t_359_999 >= 89
 cap_NA5267: t_370_999 + t_365_999 + t_368_999 + t_371_999 + t_363_999
   + t_142_999 + t_366_999 + t_369_999 + t_364_999 + t_367_999 >= 421
 cap_NA5297: t_143_999 >= -115
 cap_NA5331: t_144_999 - 0.44 t_376_144 >= -98
 cap_NA5369: t_373_999 + t_376_999 + t_379_999 + t_374_999 + t_377_999
   + t_145_999 + t_380_999 + t_372_999 + t_375_999 + t_378_999 + t_376_144
   >= 377
 demand_0: t_0_999 <= 37
 demand_1: t_1_999 <= 56
 demand_2: t_2_999 <= 30
 demand_3: t_3_999 <= 28
 demand_4: t_4_999 <= 61
 demand_5: t_5_999 <= 34
 demand_6: t_6_999 <= 50
 demand_7: t_7_999 <= 8
 demand_8: t_8_999 <= 18
 demand_9: t_9_999 <= 3
 demand_10: t_10_21 + t_10_999 <= 0
 demand_11: t_11_999 <= 38
 demand_12: t_12_999 <= 46
 demand_13: t_13_999 + t_13_19 <= 11
 demand_14: t_14_999 <= 28
 demand_15: t_15_999 <= 30
 demand_16: t_16_999 <= 73
 demand_17: t_17_14 + t_17_999 <= 57
 demand_18: t_18_999 <= 20
 demand_19: t_19_999 + t_19_26 <= 36
 demand_20: t_20_999 <= 24
 demand_21: t_21_26 + t_21_999 <= 36
 demand_22: t_22_999 <= 64
 demand_23: t_23_14 + t_23_999 + t_23_21 <= 66
 demand_24: t_24_999 <= 13
 demand_25: t_25_999 <= 37
 demand_26: t_26_999 <= 32
 demand_27: t_27_999 <= 92
 demand_28: t_28_999 <= 199
 demand_29: t_29_999 <= 37
 demand_30: t_30_999 <= 147
 demand_31: t_31_999 <= 29
 demand_32: t_32_999 <= 97
 demand_33: t_33_999 <= 5
 demand_34: t_34_999 <= 41
 demand_35: t_35_999 <= 74
 demand_36: t_36_999 <= 10
 demand_37: t_37_999 <= 65
 demand_38: t_38_999 <= 7
 demand_39: t_39_999 <= 54
 demand_40: t_40_999 <= 7
 demand_41: t_41_999 <= 70
 demand_42: t_42_999 <= 57
 demand_43: t_43_999 <= 1
 demand_44: t_44_999 <= 71
 demand_45: t_45_999 <= 6
 demand_46: t_46_999 <= 19
 demand_47: t_47_999 <= 72
 demand_48: t_48_999 <= 47
 demand_49: t_49_999 <= 8
 demand_50: t_50_999 <= 7
 demand_51: t_51_999 <= 42
 demand_52: t_52_999 <= 40
 demand_53: t_53_999 <= 69
 demand_54: t_54_999 + t_54_55 <= 34
 demand_55: t_55_999 <= 13
 demand_56: t_56_999 <= 44
 demand_57: t_57_999 <= 30
 demand_58: t_58_999 <= 35
 demand_59: t_59_999 <= 29
 demand_60: t_60_999 <= 38
 demand_61: t_61_57 + t_61_999 + t_61_63 <= 40
 demand_62: t_62_999 <= 22
 demand_63: t_63_999 <= 66
 demand_64: t_64_999 + t_64_58 <= 12
 demand_65: t_65_999 + t_65_58 <= 37
 demand_66: t_66_999 <= 20
 demand_67: t_67_999 <= 22
 demand_68: t_68_999 <= 58
 demand_69: t_69_999 <= 36
 demand_70: t_70_999 <= 26
 demand_71: t_71_999 <= 37
 demand_72: t_72_999 <= 67
 demand_73: t_73_999 <= 6
 demand_74: t_74_999 <= 31
 demand_75: t_75_999 <= 44
 demand_76: t_76_999 <= 27
 demand_77: t_77_999 <= 10
 demand_78: t_78_999 <= 61
 demand_79: t_79_999 <= 29
 demand_80: t_80_999 <= 29
 demand_81: t_81_999 <= 69
 demand_82: t_82_999 <= 64
 demand_83: t_83_999 <= 64
 demand_84: t_84_999 <= 134
 demand_85: t_85_999 <= 68
 demand_86: t_86_999 <= 102
 demand_87: t_87_999 <= 70
 demand_88: t_88_999 <= 37
 demand_89: t_89_999 <= 66
 demand_90: t_90_999 + t_90_89 <= 31
 demand_91: t_91_999 <= 6
 demand_92: t_92_999 <= 102
 demand_93: t_93_999 <= 46
 demand_94: t_94_999 <= 53
 demand_95: t_95_999 <= 73
 demand_96: t_96_999 <= 52
 demand_97: t_97_999 <= 44
 demand_98: t_98_999 <= 30
 demand_99: t_99_999 <= 45
 demand_100: t_100_999 <= 28
 demand_101: t_101_999 <= 91
 demand_102: t_102_999 <= 59
 demand_103: t_103_999 <= 48
 demand_104: t_104_999 <= 117
 demand_105: t_105_999 <= 47
 demand_106: t_106_999 <= 115
 demand_107: t_107_999 <= 106
 demand_108: t_108_999 <= 64
 demand_109: t_109_999 <= 225
 demand_110: t_110_999 <= 64
 demand_111: t_111_999 <= 225
 demand_112: t_112_999 <= 134
 demand_113: t_113_999 <= 46
 demand_114: t_114_999 <= 87
 demand_115: t_115_999 <= 94
 demand_116: t_116_999 <= 87
 demand_117: t_117_999 <= 40
 demand_118: t_118_999 <= 76
 demand_119: t_119_999 <= 100
 demand_120: t_120_999 <= 92
 demand_121: t_121_999 <= 68
 demand_122: t_122_999 <= 34
 demand_123: t_123_999 <= 149
 demand_124: t_124_999 <= 54
 demand_125: t_125_999 <= 125
 demand_126: t_126_999 <= 141
 demand_127: t_127_999 <= 102
 demand_128: t_128_999 <= 70
 demand_129: t_129_133 + t_129_999 <= 78
 demand_130: t_130_999 + t_130_133 <= 54
 demand_131: t_131_999 <= 2
 demand_132: t_132_999 <= 83
 demand_133: t_133_999 <= 26
 demand_134: t_134_999 <= 108
 demand_135: t_135_999 <= 22
 demand_136: t_136_999 <= 150
 demand_137: t_137_999 <= 27
 demand_138: t_138_999 <= 127
 demand_139: t_139_999 <= 121
 demand_140: t_140_999 <= 22
 demand_141: t_141_999 <= 46
 demand_142: t_142_999 <= 53
 demand_143: t_143_999 <= 35
 demand_144: t_144_999 <= 52
 demand_145: t_145_999 <= 73
 demand_146: t_146_6 + t_146_999 <= 8
 demand_147: t_147_999 <= 27
 demand_148: t_148_224 + t_148_999 <= 26
 demand_149: t_149_999 <= 12
 demand_150: t_150_999 <= 69
 demand_151: t_151_999 <= 46
 demand_152: t_152_999 <= 35
 demand_153: t_153_999 <= 27
 demand_154: t_154_999 <= 14
 demand_155: t_155_0 + t_155_999 + t_155_7 <= 27
 demand_156: t_156_999 <= 172
 demand_157: t_157_999 <= 60
 demand_158: t_158_999 <= 159
 demand_159: t_159_999 <= 20
 demand_160: t_160_999 <= 18
 demand_161: t_161_999 <= 74
 demand_162: t_162_999 <= 6
 demand_163: t_163_999 <= 17
 demand_164: t_164_999 + t_164_2 + t_164_1 <= 9
 demand_165: t_165_224 + t_165_223 + t_165_999 <= 17
 demand_166: t_166_999 + t_166_223 <= 22
 demand_167: t_167_999 <= 6
 demand_168: t_168_999 <= 123
 demand_169: t_169_999 <= 1
 demand_170: t_170_999 <= 3
 demand_171: t_171_999 <= 21
 demand_172: t_172_3 + t_172_999 <= 34
 demand_173: t_173_999 <= 62
 demand_174: t_174_4 + t_174_999 <= 39
 demand_175: t_175_999 <= 16
 demand_176: t_176_999 <= 26
 demand_177: t_177_999 <= 51
 demand_178: t_178_999 <= 43
 demand_179: t_179_999 + t_179_207 + t_179_206 <= 49
 demand_180: t_180_999 <= 12
 demand_181: t_181_5 + t_181_205 + t_181_999 <= 34
 demand_182: t_182_999 + t_182_2 <= 65
 demand_183: t_183_224 + t_183_999 <= 13
 demand_184: t_184_999 <= 29
 demand_185: t_185_999 <= 43
 demand_186: t_186_999 <= 5
 demand_187: t_187_999 <= 21
 demand_188: t_188_999 <= 39
 demand_189: t_189_999 <= 25
 demand_190: t_190_999 + t_190_189 + t_190_206 <= 6
 demand_191: t_191_999 <= 37
 demand_192: t_192_8 + t_192_999 <= 8
 demand_193: t_193_999 <= 17
 demand_194: t_194_999 <= 13
 demand_195: t_195_999 <= 12
 demand_196: t_196_999 <= 28
 demand_197: t_197_6 + t_197_9 + t_197_999 + t_197_2 <= 59
 demand_198: t_198_999 <= 8
 demand_199: t_199_999 <= 20
 demand_200: t_200_999 <= 17
 demand_201: t_201_999 <= 33
 demand_202: t_202_999 <= 61
 demand_203: t_203_999 <= 33
 demand_204: t_204_999 <= 4
 demand_205: t_205_9 + t_205_4 + t_205_999 <= 8
 demand_206: t_206_999 <= 33
 demand_207: t_207_999 <= 2
 demand_208: t_208_999 <= 12
 demand_209: t_209_999 + t_209_5 <= 28
 demand_210: t_210_999 + t_210_0 <= 11
 demand_211: t_211_999 <= 13
 demand_212: t_212_999 <= 21
 demand_213: t_213_999 + t_213_193 <= 36
 demand_214: t_214_999 <= 32
 demand_215: t_215_999 <= 8
 demand_216: t_216_999 <= 10
 demand_217: t_217_999 <= 13
 demand_218: t_218_999 <= 25
 demand_219: t_219_999 <= 10
 demand_220: t_220_999 <= 14
 demand_221: t_221_999 <= 71
 demand_222: t_222_9 + t_222_999 <= 58
 demand_223: t_223_999 <= 16
 demand_224: t_224_999 <= 26
 demand_225: t_225_999 <= 12
 demand_226: t_226_999 + t_226_6 + t_226_0 <= 18
 demand_227: t_227_999 <= 69
 demand_228: t_228_999 + t_228_189 <= 62
 demand_229: t_229_999 + t_229_208 <= 81
 demand_230: t_230_5 + t_230_999 <= 14
 demand_231: t_231_999 <= 13
 demand_232: t_232_999 <= 61
 demand_233: t_233_999 <= 71
 demand_234: t_234_999 <= 199
 demand_235: t_235_999 <= 36
 demand_236: t_236_999 <= 27
 demand_237: t_237_999 <= 10
 demand_238: t_238_42 + t_238_999 <= 54
 demand_239: t_239_38 + t_239_999 + t_239_35 <= 47
 demand_240: t_240_999 + t_240_41 <= 30
 demand_241: t_241_238 + t_241_999 <= 13
 demand_242: t_242_999 <= 59
 demand_243: t_243_999 <= 17
 demand_244: t_244_999 <= 14
 demand_245: t_245_999 <= 49
 demand_246: t_246_999 <= 41
 demand_247: t_247_999 + t_247_37 <= 69
 demand_248: t_248_999 <= 58
 demand_249: t_249_999 <= 73
 demand_250: t_250_999 <= 29
 demand_251: t_251_999 <= 44
 demand_252: t_252_999 <= 135
 demand_253: t_253_999 <= 120
 demand_254: t_254_999 <= 76
 demand_255: t_255_999 <= 84
 demand_256: t_256_999 <= 40
 demand_257: t_257_38 + t_257_42 + t_257_999 + t_257_35 <= 64
 demand_258: t_258_35 + t_258_999 <= 10
 demand_259: t_259_999 + t_259_35 <= 13
 demand_260: t_260_999 <= 30
 demand_261: t_261_999 <= 14
 demand_262: t_262_999 <= 29
 demand_263: t_263_999 <= 58
 demand_264: t_264_999 <= 47
 demand_265: t_265_999 <= 20
 demand_266: t_266_999 <= 45
 demand_267: t_267_999 <= 77
 demand_268: t_268_999 <= 6
 demand_269: t_269_999 <= 22
 demand_270: t_270_999 <= 21
 demand_271: t_271_999 <= 52
 demand_272: t_272_999 <= 7
 demand_273: t_273_999 <= 23
 demand_274: t_274_999 <= 57
 demand_275: t_275_999 <= 34
 demand_276: t_276_999 <= 14
 demand_277: t_277_999 <= 13
 demand_278: t_278_999 <= 27
 demand_279: t_279_999 <= 18
 demand_280: t_280_999 <= 28
 demand_281: t_281_999 <= 24
 demand_282: t_282_999 <= 54
 demand_283: t_283_999 <= 5
 demand_284: t_284_999 <= 75
 demand_285: t_285_999 <= 5
 demand_286: t_286_999 <= 35
 demand_287: t_287_999 <= 36
 demand_288: t_288_999 <= 14
 demand_289: t_289_999 <= 43
 demand_290: t_290_999 <= 67
 demand_291: t_291_999 <= 25
 demand_292: t_292_999 <= 38
 demand_293: t_293_999 <= 26
 demand_294: t_294_999 <= 224
 demand_295: t_295_999 <= 108
 demand_296: t_296_999 <= 26
 demand_297: t_297_999 <= 43
 demand_298: t_298_999 <= 23
 demand_299: t_299_999 <= 38
 demand_300: t_300_999 <= 39
 demand_301: t_301_999 <= 17
 demand_302: t_302_999 <= 130
 demand_303: t_303_999 <= 29
 demand_304: t_304_999 <= 54
 demand_305: t_305_999 <= 40
 demand_306: t_306_999 <= 19
 demand_307: t_307_999 <= 46
 demand_308: t_308_999 <= 95
 demand_309: t_309_999 <= 130
 demand_310: t_310_999 <= 199
 demand_311: t_311_999 <= 92
 demand_312: t_312_999 <= 76
 demand_313: t_313_999 + t_313_119 + t_313_120 <= 95
 demand_314: t_314_999 <= 46
 demand_315: t_315_999 <= 43
 demand_316: t_316_999 <= 13
 demand_317: t_317_999 <= 29
 demand_318: t_318_999 <= 49
 demand_319: t_319_999 <= 59
 demand_320: t_320_999 <= 113
 demand_321: t_321_999 <= 6
 demand_322: t_322_999 <= 40
 demand_323: t_323_999 <= 45
 demand_324: t_324_999 <= 130
 demand_325: t_325_999 <= 77
 demand_326: t_326_999 <= 74
 demand_327: t_327_999 <= 6
 demand_328: t_328_999 <= 76
 demand_329: t_329_999 <= 38
 demand_330: t_330_999 <= 196
 demand_331: t_331_999 <= 29
 demand_332: t_332_999 <= 37
 demand_333: t_333_999 <= 20
 demand_334: t_334_999 <= 11
 demand_335: t_335_999 <= 30
 demand_336: t_336_999 + t_336_332 <= 19
 demand_337: t_337_999 <= 51
 demand_338: t_338_999 <= 72
 demand_339: t_339_999 <= 36
 demand_340: t_340_999 <= 49
 demand_341: t_341_136 + t_341_999 <= 18
 demand_342: t_342_999 <= 33
 demand_343: t_343_999 <= 95
 demand_344: t_344_999 <= 106
 demand_345: t_345_999 <= 113
 demand_346: t_346_999 <= 5
 demand_347: t_347_999 <= 72
 demand_348: t_348_999 <= 41
 demand_349: t_349_999 <= 19
 demand_350: t_350_999 <= 31
 demand_351: t_351_999 <= 18
 demand_352: t_352_999 <= 13
 demand_353: t_353_999 <= 10
 demand_354: t_354_999 + t_354_332 <= 37
 demand_355: t_355_999 <= 34
 demand_356: t_356_999 <= 30
 demand_357: t_357_999 <= 43
 demand_358: t_358_999 <= 1
 demand_359: t_359_999 <= 43
 demand_360: t_360_999 <= 0
 demand_361: t_361_999 <= 15
 demand_362: t_362_999 <= 11
 demand_363: t_363_999 <= 52
 demand_364: t_364_999 <= 9
 demand_365: t_365_999 <= 13
 demand_366: t_366_999 <= 30
 demand_367: t_367_999 <= 51
 demand_368: t_368_999 <= 15
 demand_369: t_369_999 <= 75
 demand_370: t_370_999 <= 189
 demand_371: t_371_999 <= 4
 demand_372: t_372_999 <= 29
 demand_373: t_373_999 <= 25
 demand_374: t_374_999 <= 50
 demand_375: t_375_999 <= 61
 demand_376: t_376_999 + t_376_144 <= 16
 demand_377: t_377_999 <= 90
 demand_378: t_378_999 <= 29
 demand_379: t_379_999 <= 1
 demand_380: t_380_999 <= 73
 demand_999: <= 1e+10
Bounds
Generals
 t_51_999 t_258_35 t_225_999 t_236_999 t_370_999 t_119_999 t_197_6
 t_264_999 t_341_136 t_176_999 t_187_999 t_198_999 t_321_999 t_332_999
 t_81_999 t_255_999 t_138_999 t_149_999 t_160_999 t_283_999 t_294_999
 t_32_999 t_43_999 t_217_999 t_351_999 t_362_999 t_100_999 t_111_999
 t_245_999 t_256_999 t_5_999 t_179_999 t_313_999 t_324_999 t_62_999
 t_73_999 t_207_999 t_218_999 t_183_224 t_130_999 t_174_4 t_275_999
 t_286_999 t_155_0 t_13_999 t_24_999 t_35_999 t_257_38 t_343_999 t_92_999
 t_248_999 t_373_999 t_122_999 t_305_999 t_54_999 t_190_999 t_335_999
 t_16_999 t_257_42 t_247_999 t_197_9 t_141_999 t_152_999 t_10_21 t_54_55
 t_209_999 t_220_999 t_354_999 t_365_999 t_103_999 t_114_999 t_171_999
 t_182_999 t_179_207 t_316_999 t_327_999 t_65_999 t_76_999 t_21_26
 t_250_999 t_133_999 t_144_999 t_278_999 t_289_999 t_27_999 t_148_224
 t_201_999 t_346_999 t_357_999 t_84_999 t_95_999 t_106_999 t_240_999
 t_163_999 t_297_999 t_308_999 t_319_999 t_46_999 t_57_999 t_68_999
 t_202_999 t_61_57 t_190_189 t_376_999 t_125_999 t_281_999 t_259_999
 t_270_999 t_8_999 t_19_999 t_30_999 t_181_5 t_338_999 t_87_999 t_243_999
 t_300_999 t_38_999 t_49_999 t_174_999 t_185_999 t_240_41 t_0_999 t_11_999
 t_242_999 t_136_999 t_147_999 t_17_14 t_146_6 t_204_999 t_215_999 t_230_5
 t_349_999 t_360_999 t_98_999 t_190_206 t_272_999 t_222_9 t_155_999
 t_166_999 t_177_999 t_311_999 t_60_999 t_234_999 t_368_999 t_379_999
 t_65_58 t_117_999 t_128_999 t_139_999 t_273_999 t_22_999 t_130_133
 t_241_238 t_196_999 t_330_999 t_341_999 t_352_999 t_79_999 t_90_999
 t_101_999 t_235_999 t_313_119 t_158_999 t_172_3 t_292_999 t_303_999
 t_314_999 t_41_999 t_52_999 t_197_999 t_371_999 t_109_999 t_120_999
 t_254_999 t_265_999 t_3_999 t_14_999 t_322_999 t_333_999 t_71_999 t_82_999
 t_227_999 t_181_205 t_284_999 t_295_999 t_33_999 t_44_999 t_165_224
 t_169_999 t_19_26 t_259_35 t_239_38 t_226_999 t_237_999 t_131_999 t_23_14
 t_63_999 t_205_9 t_188_999 t_199_999 t_210_999 t_344_999 t_93_999 t_25_999
 t_267_999 t_150_999 t_161_999 t_172_999 t_306_999 t_55_999 t_229_999
 t_363_999 t_374_999 t_112_999 t_123_999 t_257_999 t_268_999 t_182_2
 t_205_4 t_6_999 t_180_999 t_191_999 t_325_999 t_336_999 t_229_208 t_74_999
 t_85_999 t_219_999 t_165_223 t_142_999 t_153_999 t_238_42 t_276_999
 t_287_999 t_298_999 t_36_999 t_47_999 t_355_999 t_104_999 t_115_999
 t_238_999 t_249_999 t_260_999 t_317_999 t_66_999 t_222_999 t_134_999
 t_279_999 t_17_999 t_28_999 t_164_999 t_221_999 t_232_999 t_366_999
 t_377_999 t_126_999 t_179_206 t_155_7 t_183_999 t_194_999 t_209_5
 t_328_999 t_339_999 t_77_999 t_9_999 t_251_999 t_262_999 t_145_999
 t_156_999 t_290_999 t_39_999 t_213_999 t_224_999 t_347_999 t_358_999
 t_369_999 t_96_999 t_107_999 t_118_999 t_252_999 t_1_999 t_157_999
 t_175_999 t_309_999 t_320_999 t_331_999 t_58_999 t_69_999 t_80_999
 t_214_999 t_354_332 t_137_999 t_271_999 t_282_999 t_293_999 t_20_999
 t_31_999 t_205_999 t_350_999 t_88_999 t_99_999 t_233_999 t_244_999
 t_257_35 t_197_2 t_129_133 t_301_999 t_312_999 t_50_999 t_61_999 t_186_999
 t_263_999 t_274_999 t_12_999 t_23_999 t_148_999 t_216_999 t_361_999
 t_110_999 t_42_999 t_167_999 t_178_999 t_189_999 t_323_999 t_72_999
 t_4_999 t_246_999 t_380_999 t_129_999 t_140_999 t_151_999 t_285_999
 t_213_193 t_208_999 t_342_999 t_353_999 t_364_999 t_102_999 t_91_999
 t_192_8 t_159_999 t_170_999 t_226_6 t_304_999 t_315_999 t_53_999 t_64_999
 t_372_999 t_121_999 t_132_999 t_266_999 t_277_999 t_61_63 t_15_999
 t_26_999 t_334_999 t_345_999 t_83_999 t_94_999 t_13_19 t_228_999 t_239_999
 t_296_999 t_307_999 t_34_999 t_45_999 t_56_999 t_181_999 t_113_999
 t_258_999 t_269_999 t_7_999 t_18_999 t_143_999 t_326_999 t_75_999
 t_200_999 t_211_999 t_356_999 t_247_37 t_164_2 t_288_999 t_37_999 t_90_89
 t_162_999 t_173_999 t_230_999 t_241_999 t_375_999 t_124_999 t_135_999
 t_226_0 t_192_999 t_203_999 t_228_189 t_337_999 t_348_999 t_86_999
 t_97_999 t_231_999 t_166_223 t_210_0 t_154_999 t_165_999 t_299_999
 t_310_999 t_48_999 t_23_21 t_193_999 t_367_999 t_378_999 t_64_58 t_105_999
 t_116_999 t_127_999 t_261_999 t_10_999 t_184_999 t_164_1 t_318_999
 t_329_999 t_340_999 t_67_999 t_78_999 t_89_999 t_212_999 t_223_999
 t_146_999 t_280_999 t_291_999 t_29_999 t_40_999 t_313_120 t_336_332
 t_359_999 t_108_999 t_253_999 t_2_999 t_59_999 t_70_999 t_239_35 t_195_999
 t_206_999 t_376_144 t_21_999 t_168_999 t_302_999
End
